p cnf 120 400
1 2 3 0
4 5 6 0
7 8 9 0
10 11 12 0
13 14 15 0
16 17 18 0
19 20 21 0
22 23 24 0
25 26 27 0
28 29 30 0
31 32 33 0
34 35 36 0
37 38 39 0
40 41 42 0
43 44 45 0
46 47 48 0
49 50 51 0
52 53 54 0
55 56 57 0
58 59 60 0
61 62 63 0
64 65 66 0
67 68 69 0
70 71 72 0
73 74 75 0
76 77 78 0
79 80 81 0
82 83 84 0
85 86 87 0
88 89 90 0
91 92 93 0
94 95 96 0
97 98 99 0
100 101 102 0
103 104 105 0
106 107 108 0
109 110 111 0
112 113 114 0
115 116 117 0
118 119 120 0
-1 -2 0
-1 -3 0
-2 -3 0
-4 -5 0
-4 -6 0
-5 -6 0
-7 -8 0
-7 -9 0
-8 -9 0
-10 -11 0
-10 -12 0
-11 -12 0
-13 -14 0
-13 -15 0
-14 -15 0
-16 -17 0
-16 -18 0
-17 -18 0
-19 -20 0
-19 -21 0
-20 -21 0
-22 -23 0
-22 -24 0
-23 -24 0
-25 -26 0
-25 -27 0
-26 -27 0
-28 -29 0
-28 -30 0
-29 -30 0
-31 -32 0
-31 -33 0
-32 -33 0
-34 -35 0
-34 -36 0
-35 -36 0
-37 -38 0
-37 -39 0
-38 -39 0
-40 -41 0
-40 -42 0
-41 -42 0
-43 -44 0
-43 -45 0
-44 -45 0
-46 -47 0
-46 -48 0
-47 -48 0
-49 -50 0
-49 -51 0
-50 -51 0
-52 -53 0
-52 -54 0
-53 -54 0
-55 -56 0
-55 -57 0
-56 -57 0
-58 -59 0
-58 -60 0
-59 -60 0
-61 -62 0
-61 -63 0
-62 -63 0
-64 -65 0
-64 -66 0
-65 -66 0
-67 -68 0
-67 -69 0
-68 -69 0
-70 -71 0
-70 -72 0
-71 -72 0
-73 -74 0
-73 -75 0
-74 -75 0
-76 -77 0
-76 -78 0
-77 -78 0
-79 -80 0
-79 -81 0
-80 -81 0
-82 -83 0
-82 -84 0
-83 -84 0
-85 -86 0
-85 -87 0
-86 -87 0
-88 -89 0
-88 -90 0
-89 -90 0
-91 -92 0
-91 -93 0
-92 -93 0
-94 -95 0
-94 -96 0
-95 -96 0
-97 -98 0
-97 -99 0
-98 -99 0
-100 -101 0
-100 -102 0
-101 -102 0
-103 -104 0
-103 -105 0
-104 -105 0
-106 -107 0
-106 -108 0
-107 -108 0
-109 -110 0
-109 -111 0
-110 -111 0
-112 -113 0
-112 -114 0
-113 -114 0
-115 -116 0
-115 -117 0
-116 -117 0
-118 -119 0
-118 -120 0
-119 -120 0
-1 -37 0
-1 -46 0
-4 -61 0
-4 -73 0
-7 -94 0
-7 -115 0
-10 -28 0
-10 -64 0
-13 -49 0
-13 -61 0
-16 -58 0
-16 -91 0
-19 -55 0
-19 -103 0
-22 -79 0
-22 -91 0
-25 -28 0
-25 -64 0
-28 -10 0
-28 -25 0
-31 -55 0
-31 -118 0
-34 -73 0
-34 -88 0
-37 -1 0
-37 -49 0
-40 -76 0
-40 -100 0
-43 -70 0
-43 -97 0
-46 -1 0
-46 -100 0
-49 -13 0
-49 -37 0
-52 -82 0
-52 -106 0
-55 -19 0
-55 -31 0
-58 -16 0
-58 -79 0
-61 -4 0
-61 -13 0
-64 -10 0
-64 -25 0
-67 -85 0
-67 -118 0
-70 -43 0
-70 -115 0
-73 -4 0
-73 -34 0
-76 -40 0
-76 -103 0
-79 -22 0
-79 -58 0
-82 -52 0
-82 -109 0
-85 -67 0
-85 -109 0
-88 -34 0
-88 -106 0
-91 -16 0
-91 -22 0
-94 -7 0
-94 -112 0
-97 -43 0
-97 -112 0
-100 -40 0
-100 -46 0
-103 -19 0
-103 -76 0
-106 -52 0
-106 -88 0
-109 -82 0
-109 -85 0
-112 -94 0
-112 -97 0
-115 -7 0
-115 -70 0
-118 -31 0
-118 -67 0
-2 -38 0
-2 -47 0
-5 -62 0
-5 -74 0
-8 -95 0
-8 -116 0
-11 -29 0
-11 -65 0
-14 -50 0
-14 -62 0
-17 -59 0
-17 -92 0
-20 -56 0
-20 -104 0
-23 -80 0
-23 -92 0
-26 -29 0
-26 -65 0
-29 -11 0
-29 -26 0
-32 -56 0
-32 -119 0
-35 -74 0
-35 -89 0
-38 -2 0
-38 -50 0
-41 -77 0
-41 -101 0
-44 -71 0
-44 -98 0
-47 -2 0
-47 -101 0
-50 -14 0
-50 -38 0
-53 -83 0
-53 -107 0
-56 -20 0
-56 -32 0
-59 -17 0
-59 -80 0
-62 -5 0
-62 -14 0
-65 -11 0
-65 -26 0
-68 -86 0
-68 -119 0
-71 -44 0
-71 -116 0
-74 -5 0
-74 -35 0
-77 -41 0
-77 -104 0
-80 -23 0
-80 -59 0
-83 -53 0
-83 -110 0
-86 -68 0
-86 -110 0
-89 -35 0
-89 -107 0
-92 -17 0
-92 -23 0
-95 -8 0
-95 -113 0
-98 -44 0
-98 -113 0
-101 -41 0
-101 -47 0
-104 -20 0
-104 -77 0
-107 -53 0
-107 -89 0
-110 -83 0
-110 -86 0
-113 -95 0
-113 -98 0
-116 -8 0
-116 -71 0
-119 -32 0
-119 -68 0
-3 -39 0
-3 -48 0
-6 -63 0
-6 -75 0
-9 -96 0
-9 -117 0
-12 -30 0
-12 -66 0
-15 -51 0
-15 -63 0
-18 -60 0
-18 -93 0
-21 -57 0
-21 -105 0
-24 -81 0
-24 -93 0
-27 -30 0
-27 -66 0
-30 -12 0
-30 -27 0
-33 -57 0
-33 -120 0
-36 -75 0
-36 -90 0
-39 -3 0
-39 -51 0
-42 -78 0
-42 -102 0
-45 -72 0
-45 -99 0
-48 -3 0
-48 -102 0
-51 -15 0
-51 -39 0
-54 -84 0
-54 -108 0
-57 -21 0
-57 -33 0
-60 -18 0
-60 -81 0
-63 -6 0
-63 -15 0
-66 -12 0
-66 -27 0
-69 -87 0
-69 -120 0
-72 -45 0
-72 -117 0
-75 -6 0
-75 -36 0
-78 -42 0
-78 -105 0
-81 -24 0
-81 -60 0
-84 -54 0
-84 -111 0
-87 -69 0
-87 -111 0
-90 -36 0
-90 -108 0
-93 -18 0
-93 -24 0
-96 -9 0
-96 -114 0
-99 -45 0
-99 -114 0
-102 -42 0
-102 -48 0
-105 -21 0
-105 -78 0
-108 -54 0
-108 -90 0
-111 -84 0
-111 -87 0
-114 -96 0
-114 -99 0
-117 -9 0
-117 -72 0
-120 -33 0
-120 -69 0
